sat
(:cnf-encoding-aux-vars 2
 :eliminated-vars       23
 :max-memory            18.18
 :memory                18.01
 :nlsat-conflicts       3
 :nlsat-decisions       10
 :nlsat-learned-added   3
 :nlsat-propagations    23
 :nlsat-stages          7
 :num-allocs            8065
 :rlimit-count          6843
 :time                  0.00
 :total-time            0.01)
